outputs/case_317.model.txt
bank_violation = True
correction_given = True
improvement_deadline_set = True
registration_authority_notified = False
suspend_partial_business = True
guidance_institution_assigned = False
order_branch_closure = False
revoke_statutory_meeting_resolution = False
order_dismissal_or_suspension_manager_staff = False
order_dismissal_or_suspension_director_supervisor = False
restrict_investment = False
order_or_prohibit_asset_disposition = False
other_necessary_measures = False
order_provision_reserve_fund = False
business_guidance_required = False
penalty_measures = True
correction_ordered = True
business_guidance_assigned = True
penalty = False
notify_registration_authority = True
violation_occurred = True
business_guidance_needed = False